! RKS B3LYP def2-SVP
%maxcore 3500
%pal nprocs 64 end
* xyz 0 2
O 0.0 0.0 0.0
H 0.0 0.0 1.0
H 0.0 1.0 0.0
*
