! UKS B3LYP def2-SVP
%maxcore 3500
%pal nprocs 64 end
# Historical example: %maxcore 9999
# Historical example: nprocs 128
* xyz 0 2
O 0.0 0.0 0.0
H 0.0 0.0 1.0
*
